Version identifier: 22.1.0.0 | 2022-03-09 | 1a383f8ce
CPXPARAM_Read_DataCheck                          1
CPXPARAM_Threads                                 1
CPXPARAM_TimeLimit                               3600
Tried aggregator 2 times.
MIP Presolve eliminated 355 rows and 29 columns.
MIP Presolve modified 3982 coefficients.
Aggregator did 33 substitutions.
Reduced MIP has 1043 rows, 178 columns, and 6447 nonzeros.
Reduced MIP has 123 binaries, 0 generals, 0 SOSs, and 0 indicators.
Presolve time = 0.02 sec. (11.09 ticks)
Probing fixed 4 vars, tightened 0 bounds.
Probing time = 0.01 sec. (1.97 ticks)
Tried aggregator 1 time.
Detecting symmetries...
MIP Presolve eliminated 5 rows and 4 columns.
Reduced MIP has 1038 rows, 174 columns, and 6384 nonzeros.
Reduced MIP has 119 binaries, 0 generals, 0 SOSs, and 0 indicators.
Presolve time = 0.01 sec. (3.09 ticks)
Probing time = 0.00 sec. (1.80 ticks)
Clique table members: 389.
MIP emphasis: balance optimality and feasibility.
MIP search method: dynamic search.
Parallel mode: none, using 1 thread.
Root relaxation solution time = 0.00 sec. (2.66 ticks)

        Nodes                                         Cuts/
   Node  Left     Objective  IInf  Best Integer    Best Bound    ItCnt     Gap

      0     0       69.6553    40                     69.6553       62         
      0     0       69.6553    23                    Cuts: 63      169         
      0     0       69.6553    24                   Cuts: 138      347         
      0     0       69.6553    21                    Cuts: 24      428         
      0     0       69.6588    35                    Cuts: 68      593         
      0     0       69.6638    52                   Cuts: 211      659         
Detecting symmetries...
      0     0       69.6654    29                    Cuts: 88      699         
      0     0       69.6672    52                    Cuts: 28      748         
*     0+    0                           69.9164       69.6672             0.36%
Detecting symmetries...

Repeating presolve.
Tried aggregator 1 time.
MIP Presolve eliminated 904 rows and 121 columns.
MIP Presolve modified 192 coefficients.
Reduced MIP has 134 rows, 53 columns, and 500 nonzeros.
Reduced MIP has 17 binaries, 0 generals, 0 SOSs, and 0 indicators.
Presolve time = 0.00 sec. (1.05 ticks)
Probing fixed 0 vars, tightened 13 bounds.
Probing time = 0.00 sec. (0.11 ticks)
Cover probing fixed 0 vars, tightened 6 bounds.
Tried aggregator 1 time.
Detecting symmetries...
MIP Presolve eliminated 2 rows and 0 columns.
MIP Presolve modified 72 coefficients.
Reduced MIP has 132 rows, 53 columns, and 492 nonzeros.
Reduced MIP has 17 binaries, 0 generals, 0 SOSs, and 0 indicators.
Presolve time = 0.00 sec. (0.26 ticks)
Represolve time = 0.01 sec. (2.10 ticks)
Probing fixed 0 vars, tightened 3 bounds.
Probing time = 0.00 sec. (0.10 ticks)
Clique table members: 30.
MIP emphasis: balance optimality and feasibility.
MIP search method: dynamic search.
Parallel mode: none, using 1 thread.
Root relaxation solution time = 0.00 sec. (0.69 ticks)

        Nodes                                         Cuts/
   Node  Left     Objective  IInf  Best Integer    Best Bound    ItCnt     Gap

*     0+    0                           69.9164       69.6672             0.36%
      0     0       69.7113    14       69.9164       69.7113      817    0.29%
      0     0       69.7758    14       69.9164      Cuts: 15      829    0.20%
      0     0       69.8027    14       69.9164       Cuts: 7      835    0.16%
      0     0       69.8088    14       69.9164    MIRcuts: 1      836    0.15%
Detecting symmetries...
      0     2       69.8088    14       69.9164       69.8105      836    0.15%
Elapsed time = 0.26 sec. (169.78 ticks, tree = 0.01 MB, solutions = 1)

GUB cover cuts applied:  1
Implied bound cuts applied:  3
Flow cuts applied:  1
Mixed integer rounding cuts applied:  13
Lift and project cuts applied:  4

Root node processing (before b&c):
  Real time             =    0.26 sec. (169.78 ticks)
Sequential b&c:
  Real time             =    0.00 sec. (0.27 ticks)
                          ------------
Total (root+branch&cut) =    0.26 sec. (170.05 ticks)
